
Gurobi 11.0.3 (linux64) logging started Fri Nov 22 05:01:55 2024

Set parameter LogFile to value "/home/yihong/Coding/OR_SUC/SUC_results_bigM100000_thread4/case24_ieee_rts_theta0.1_epsilon0.05_gurobi_seed320000_num_gen100_N_WDR100_load_scaling_factor1_exact_T8quadra_cost.txt"
Set parameter TimeLimit to value 3600
Gurobi Optimizer version 11.0.3 build v11.0.3rc0 (linux64 - "Ubuntu 20.04.6 LTS")

CPU model: AMD EPYC 7532 32-Core Processor, instruction set [SSE2|AVX|AVX2]
Thread count: 64 physical cores, 128 logical processors, using up to 4 threads

Optimize a model with 18955 rows, 10121 columns and 440954 nonzeros
Model fingerprint: 0xedcd9b63
Model has 800 quadratic constraints
Variable types: 9221 continuous, 900 integer (900 binary)
Coefficient statistics:
  Matrix range     [3e-04, 1e+05]
  QMatrix range    [2e-03, 8e-03]
  QLMatrix range   [3e-02, 6e+01]
  Objective range  [1e+00, 1e+00]
  Bounds range     [1e+00, 1e+00]
  RHS range        [1e+00, 1e+05]
Presolve removed 15509 rows and 4371 columns
Presolve time: 0.12s
Presolved: 3446 rows, 5750 columns, 20388 nonzeros
Presolved model has 800 quadratic constraint(s)
Variable types: 4877 continuous, 873 integer (873 binary)

Root relaxation: objective 9.804601e+03, 2709 iterations, 0.04 seconds (0.05 work units)

    Nodes    |    Current Node    |     Objective Bounds      |     Work
 Expl Unexpl |  Obj  Depth IntInf | Incumbent    BestBd   Gap | It/Node Time

     0     0 9804.60135    0   10          - 9804.60135      -     -    0s
     0     0 151265.516    0  219          - 151265.516      -     -    0s
     0     0 151517.051    0  211          - 151517.051      -     -    0s
     0     0 262938.968    0  122          - 262938.968      -     -    0s
     0     0 263049.830    0  122          - 263049.830      -     -    0s
     0     0 263329.510    0   94          - 263329.510      -     -    0s
     0     0 263347.052    0   96          - 263347.052      -     -    0s
     0     0 263482.892    0   87          - 263482.892      -     -    0s
     0     0 263482.892    0   87          - 263482.892      -     -    0s
     0     2 263482.892    0   87          - 263482.892      -     -    0s
H  229   246                    264638.79834 263961.362  0.26%  10.8    1s
*  229   246              64    264638.79834 263961.362  0.26%  10.8    1s
H  279   219                    264350.01723 263971.571  0.14%  10.8    1s
*  279   219              63    264350.01723 263971.571  0.14%  10.8    1s
H  367   313                    264008.91411 263973.431  0.01%  12.6    1s
*  367   313              39    264008.91411 263973.431  0.01%  12.6    1s

Cutting planes:
  Gomory: 56
  Implied bound: 203
  MIR: 84
  Flow cover: 125
  RLT: 1

Explored 452 nodes (11610 simplex iterations) in 2.11 seconds (2.80 work units)
Thread count was 4 (of 128 available processors)

Solution count 4: 264009 264009 264350 264639 

Optimal solution found (tolerance 1.00e-03)
Warning: max constraint violation (5.9928e-08) exceeds tolerance
Best objective 2.640089141121e+05, best bound 2.639734308830e+05, gap 0.0134%
